4 
5  28 45 58 
6  13 26 39 54 
7  09 24 39 54 
8  09 24 39 54 
9  09 24 39 56 
10  11 26 41 56 
11  11 26 41 56 
12  11 26 41 56 
13  11 26 41 56 
14  11 26 41 56 
15  11 26 41 56 
16  11 26 41 56 
17  11 26 41 56 
18  11 26 41 56 
19  11 26 41 56 
20  11 26 41 56 
21  11 26 41 56 
22  13 28 43 55 
23  08 
0 
